p cnf 16 16
-15 -7 -4 10 0
-2 11 1 0
8 -4 -6 3 -1 -10 -12 16 13 5 2 11 -15 14 -7 0
-7 3 15 -12 6 10 0
-16 -10 -12 1 0
-6 -16 -1 11 0
-2 10 0
-3 -2 6 -9 0
-9 -5 -12 -14 -4 -1 10 13 7 2 15 6 11 -16 0
-6 3 -15 -5 0
-6 13 0
11 12 0
11 5 7 -13 12 10 -6 0
-16 9 -10 0
-16 15 -8 14 0
5 -8 -9 14 0
